p cnf 250 3325
-246 -241 0
-247 -242 0
-248 -243 0
-249 -244 0
-250 -245 0
-246 -211 0
-247 -212 0
-248 -213 0
-249 -214 0
-250 -215 0
-246 -201 0
-247 -202 0
-248 -203 0
-249 -204 0
-250 -205 0
-246 -191 0
-247 -192 0
-248 -193 0
-249 -194 0
-250 -195 0
-246 -181 0
-247 -182 0
-248 -183 0
-249 -184 0
-250 -185 0
-246 -161 0
-247 -162 0
-248 -163 0
-249 -164 0
-250 -165 0
-246 -156 0
-247 -157 0
-248 -158 0
-249 -159 0
-250 -160 0
-246 -126 0
-247 -127 0
-248 -128 0
-249 -129 0
-250 -130 0
-246 -116 0
-247 -117 0
-248 -118 0
-249 -119 0
-250 -120 0
-246 -111 0
-247 -112 0
-248 -113 0
-249 -114 0
-250 -115 0
-246 -101 0
-247 -102 0
-248 -103 0
-249 -104 0
-250 -105 0
-246 -86 0
-247 -87 0
-248 -88 0
-249 -89 0
-250 -90 0
-246 -81 0
-247 -82 0
-248 -83 0
-249 -84 0
-250 -85 0
-246 -76 0
-247 -77 0
-248 -78 0
-249 -79 0
-250 -80 0
-246 -66 0
-247 -67 0
-248 -68 0
-249 -69 0
-250 -70 0
-246 -56 0
-247 -57 0
-248 -58 0
-249 -59 0
-250 -60 0
-246 -41 0
-247 -42 0
-248 -43 0
-249 -44 0
-250 -45 0
-246 -11 0
-247 -12 0
-248 -13 0
-249 -14 0
-250 -15 0
-241 -236 0
-242 -237 0
-243 -238 0
-244 -239 0
-245 -240 0
-241 -231 0
-242 -232 0
-243 -233 0
-244 -234 0
-245 -235 0
-241 -226 0
-242 -227 0
-243 -228 0
-244 -229 0
-245 -230 0
-241 -221 0
-242 -222 0
-243 -223 0
-244 -224 0
-245 -225 0
-241 -206 0
-242 -207 0
-243 -208 0
-244 -209 0
-245 -210 0
-241 -181 0
-242 -182 0
-243 -183 0
-244 -184 0
-245 -185 0
-241 -176 0
-242 -177 0
-243 -178 0
-244 -179 0
-245 -180 0
-241 -166 0
-242 -167 0
-243 -168 0
-244 -169 0
-245 -170 0
-241 -161 0
-242 -162 0
-243 -163 0
-244 -164 0
-245 -165 0
-241 -151 0
-242 -152 0
-243 -153 0
-244 -154 0
-245 -155 0
-241 -146 0
-242 -147 0
-243 -148 0
-244 -149 0
-245 -150 0
-241 -131 0
-242 -132 0
-243 -133 0
-244 -134 0
-245 -135 0
-241 -116 0
-242 -117 0
-243 -118 0
-244 -119 0
-245 -120 0
-241 -101 0
-242 -102 0
-243 -103 0
-244 -104 0
-245 -105 0
-241 -96 0
-242 -97 0
-243 -98 0
-244 -99 0
-245 -100 0
-241 -66 0
-242 -67 0
-243 -68 0
-244 -69 0
-245 -70 0
-241 -56 0
-242 -57 0
-243 -58 0
-244 -59 0
-245 -60 0
-241 -36 0
-242 -37 0
-243 -38 0
-244 -39 0
-245 -40 0
-241 -31 0
-242 -32 0
-243 -33 0
-244 -34 0
-245 -35 0
-241 -26 0
-242 -27 0
-243 -28 0
-244 -29 0
-245 -30 0
-241 -11 0
-242 -12 0
-243 -13 0
-244 -14 0
-245 -15 0
-236 -226 0
-237 -227 0
-238 -228 0
-239 -229 0
-240 -230 0
-236 -221 0
-237 -222 0
-238 -223 0
-239 -224 0
-240 -225 0
-236 -216 0
-237 -217 0
-238 -218 0
-239 -219 0
-240 -220 0
-236 -201 0
-237 -202 0
-238 -203 0
-239 -204 0
-240 -205 0
-236 -196 0
-237 -197 0
-238 -198 0
-239 -199 0
-240 -200 0
-236 -191 0
-237 -192 0
-238 -193 0
-239 -194 0
-240 -195 0
-236 -186 0
-237 -187 0
-238 -188 0
-239 -189 0
-240 -190 0
-236 -176 0
-237 -177 0
-238 -178 0
-239 -179 0
-240 -180 0
-236 -166 0
-237 -167 0
-238 -168 0
-239 -169 0
-240 -170 0
-236 -161 0
-237 -162 0
-238 -163 0
-239 -164 0
-240 -165 0
-236 -151 0
-237 -152 0
-238 -153 0
-239 -154 0
-240 -155 0
-236 -146 0
-237 -147 0
-238 -148 0
-239 -149 0
-240 -150 0
-236 -141 0
-237 -142 0
-238 -143 0
-239 -144 0
-240 -145 0
-236 -131 0
-237 -132 0
-238 -133 0
-239 -134 0
-240 -135 0
-236 -121 0
-237 -122 0
-238 -123 0
-239 -124 0
-240 -125 0
-236 -96 0
-237 -97 0
-238 -98 0
-239 -99 0
-240 -100 0
-236 -86 0
-237 -87 0
-238 -88 0
-239 -89 0
-240 -90 0
-236 -81 0
-237 -82 0
-238 -83 0
-239 -84 0
-240 -85 0
-236 -76 0
-237 -77 0
-238 -78 0
-239 -79 0
-240 -80 0
-236 -61 0
-237 -62 0
-238 -63 0
-239 -64 0
-240 -65 0
-236 -36 0
-237 -37 0
-238 -38 0
-239 -39 0
-240 -40 0
-236 -31 0
-237 -32 0
-238 -33 0
-239 -34 0
-240 -35 0
-236 -26 0
-237 -27 0
-238 -28 0
-239 -29 0
-240 -30 0
-236 -21 0
-237 -22 0
-238 -23 0
-239 -24 0
-240 -25 0
-236 -16 0
-237 -17 0
-238 -18 0
-239 -19 0
-240 -20 0
-236 -1 0
-237 -2 0
-238 -3 0
-239 -4 0
-240 -5 0
-231 -226 0
-232 -227 0
-233 -228 0
-234 -229 0
-235 -230 0
-231 -221 0
-232 -222 0
-233 -223 0
-234 -224 0
-235 -225 0
-231 -196 0
-232 -197 0
-233 -198 0
-234 -199 0
-235 -200 0
-231 -191 0
-232 -192 0
-233 -193 0
-234 -194 0
-235 -195 0
-231 -171 0
-232 -172 0
-233 -173 0
-234 -174 0
-235 -175 0
-231 -166 0
-232 -167 0
-233 -168 0
-234 -169 0
-235 -170 0
-231 -151 0
-232 -152 0
-233 -153 0
-234 -154 0
-235 -155 0
-231 -146 0
-232 -147 0
-233 -148 0
-234 -149 0
-235 -150 0
-231 -141 0
-232 -142 0
-233 -143 0
-234 -144 0
-235 -145 0
-231 -131 0
-232 -132 0
-233 -133 0
-234 -134 0
-235 -135 0
-231 -96 0
-232 -97 0
-233 -98 0
-234 -99 0
-235 -100 0
-231 -66 0
-232 -67 0
-233 -68 0
-234 -69 0
-235 -70 0
-231 -46 0
-232 -47 0
-233 -48 0
-234 -49 0
-235 -50 0
-231 -36 0
-232 -37 0
-233 -38 0
-234 -39 0
-235 -40 0
-231 -31 0
-232 -32 0
-233 -33 0
-234 -34 0
-235 -35 0
-231 -26 0
-232 -27 0
-233 -28 0
-234 -29 0
-235 -30 0
-231 -11 0
-232 -12 0
-233 -13 0
-234 -14 0
-235 -15 0
-226 -221 0
-227 -222 0
-228 -223 0
-229 -224 0
-230 -225 0
-226 -216 0
-227 -217 0
-228 -218 0
-229 -219 0
-230 -220 0
-226 -201 0
-227 -202 0
-228 -203 0
-229 -204 0
-230 -205 0
-226 -196 0
-227 -197 0
-228 -198 0
-229 -199 0
-230 -200 0
-226 -186 0
-227 -187 0
-228 -188 0
-229 -189 0
-230 -190 0
-226 -181 0
-227 -182 0
-228 -183 0
-229 -184 0
-230 -185 0
-226 -176 0
-227 -177 0
-228 -178 0
-229 -179 0
-230 -180 0
-226 -171 0
-227 -172 0
-228 -173 0
-229 -174 0
-230 -175 0
-226 -166 0
-227 -167 0
-228 -168 0
-229 -169 0
-230 -170 0
-226 -151 0
-227 -152 0
-228 -153 0
-229 -154 0
-230 -155 0
-226 -146 0
-227 -147 0
-228 -148 0
-229 -149 0
-230 -150 0
-226 -141 0
-227 -142 0
-228 -143 0
-229 -144 0
-230 -145 0
-226 -131 0
-227 -132 0
-228 -133 0
-229 -134 0
-230 -135 0
-226 -121 0
-227 -122 0
-228 -123 0
-229 -124 0
-230 -125 0
-226 -96 0
-227 -97 0
-228 -98 0
-229 -99 0
-230 -100 0
-226 -81 0
-227 -82 0
-228 -83 0
-229 -84 0
-230 -85 0
-226 -66 0
-227 -67 0
-228 -68 0
-229 -69 0
-230 -70 0
-226 -61 0
-227 -62 0
-228 -63 0
-229 -64 0
-230 -65 0
-226 -51 0
-227 -52 0
-228 -53 0
-229 -54 0
-230 -55 0
-226 -46 0
-227 -47 0
-228 -48 0
-229 -49 0
-230 -50 0
-226 -41 0
-227 -42 0
-228 -43 0
-229 -44 0
-230 -45 0
-226 -36 0
-227 -37 0
-228 -38 0
-229 -39 0
-230 -40 0
-226 -31 0
-227 -32 0
-228 -33 0
-229 -34 0
-230 -35 0
-226 -21 0
-227 -22 0
-228 -23 0
-229 -24 0
-230 -25 0
-221 -206 0
-222 -207 0
-223 -208 0
-224 -209 0
-225 -210 0
-221 -201 0
-222 -202 0
-223 -203 0
-224 -204 0
-225 -205 0
-221 -166 0
-222 -167 0
-223 -168 0
-224 -169 0
-225 -170 0
-221 -161 0
-222 -162 0
-223 -163 0
-224 -164 0
-225 -165 0
-221 -156 0
-222 -157 0
-223 -158 0
-224 -159 0
-225 -160 0
-221 -151 0
-222 -152 0
-223 -153 0
-224 -154 0
-225 -155 0
-221 -131 0
-222 -132 0
-223 -133 0
-224 -134 0
-225 -135 0
-221 -126 0
-222 -127 0
-223 -128 0
-224 -129 0
-225 -130 0
-221 -116 0
-222 -117 0
-223 -118 0
-224 -119 0
-225 -120 0
-221 -101 0
-222 -102 0
-223 -103 0
-224 -104 0
-225 -105 0
-221 -96 0
-222 -97 0
-223 -98 0
-224 -99 0
-225 -100 0
-221 -91 0
-222 -92 0
-223 -93 0
-224 -94 0
-225 -95 0
-221 -86 0
-222 -87 0
-223 -88 0
-224 -89 0
-225 -90 0
-221 -81 0
-222 -82 0
-223 -83 0
-224 -84 0
-225 -85 0
-221 -76 0
-222 -77 0
-223 -78 0
-224 -79 0
-225 -80 0
-221 -66 0
-222 -67 0
-223 -68 0
-224 -69 0
-225 -70 0
-221 -56 0
-222 -57 0
-223 -58 0
-224 -59 0
-225 -60 0
-221 -51 0
-222 -52 0
-223 -53 0
-224 -54 0
-225 -55 0
-221 -41 0
-222 -42 0
-223 -43 0
-224 -44 0
-225 -45 0
-221 -36 0
-222 -37 0
-223 -38 0
-224 -39 0
-225 -40 0
-221 -31 0
-222 -32 0
-223 -33 0
-224 -34 0
-225 -35 0
-221 -1 0
-222 -2 0
-223 -3 0
-224 -4 0
-225 -5 0
-216 -211 0
-217 -212 0
-218 -213 0
-219 -214 0
-220 -215 0
-216 -206 0
-217 -207 0
-218 -208 0
-219 -209 0
-220 -210 0
-216 -196 0
-217 -197 0
-218 -198 0
-219 -199 0
-220 -200 0
-216 -176 0
-217 -177 0
-218 -178 0
-219 -179 0
-220 -180 0
-216 -156 0
-217 -157 0
-218 -158 0
-219 -159 0
-220 -160 0
-216 -151 0
-217 -152 0
-218 -153 0
-219 -154 0
-220 -155 0
-216 -146 0
-217 -147 0
-218 -148 0
-219 -149 0
-220 -150 0
-216 -141 0
-217 -142 0
-218 -143 0
-219 -144 0
-220 -145 0
-216 -136 0
-217 -137 0
-218 -138 0
-219 -139 0
-220 -140 0
-216 -121 0
-217 -122 0
-218 -123 0
-219 -124 0
-220 -125 0
-216 -106 0
-217 -107 0
-218 -108 0
-219 -109 0
-220 -110 0
-216 -91 0
-217 -92 0
-218 -93 0
-219 -94 0
-220 -95 0
-216 -86 0
-217 -87 0
-218 -88 0
-219 -89 0
-220 -90 0
-216 -71 0
-217 -72 0
-218 -73 0
-219 -74 0
-220 -75 0
-216 -61 0
-217 -62 0
-218 -63 0
-219 -64 0
-220 -65 0
-216 -51 0
-217 -52 0
-218 -53 0
-219 -54 0
-220 -55 0
-216 -46 0
-217 -47 0
-218 -48 0
-219 -49 0
-220 -50 0
-216 -1 0
-217 -2 0
-218 -3 0
-219 -4 0
-220 -5 0
-211 -201 0
-212 -202 0
-213 -203 0
-214 -204 0
-215 -205 0
-211 -196 0
-212 -197 0
-213 -198 0
-214 -199 0
-215 -200 0
-211 -171 0
-212 -172 0
-213 -173 0
-214 -174 0
-215 -175 0
-211 -136 0
-212 -137 0
-213 -138 0
-214 -139 0
-215 -140 0
-211 -126 0
-212 -127 0
-213 -128 0
-214 -129 0
-215 -130 0
-211 -121 0
-212 -122 0
-213 -123 0
-214 -124 0
-215 -125 0
-211 -111 0
-212 -112 0
-213 -113 0
-214 -114 0
-215 -115 0
-211 -106 0
-212 -107 0
-213 -108 0
-214 -109 0
-215 -110 0
-211 -101 0
-212 -102 0
-213 -103 0
-214 -104 0
-215 -105 0
-211 -91 0
-212 -92 0
-213 -93 0
-214 -94 0
-215 -95 0
-211 -76 0
-212 -77 0
-213 -78 0
-214 -79 0
-215 -80 0
-211 -71 0
-212 -72 0
-213 -73 0
-214 -74 0
-215 -75 0
-211 -61 0
-212 -62 0
-213 -63 0
-214 -64 0
-215 -65 0
-211 -51 0
-212 -52 0
-213 -53 0
-214 -54 0
-215 -55 0
-211 -26 0
-212 -27 0
-213 -28 0
-214 -29 0
-215 -30 0
-211 -21 0
-212 -22 0
-213 -23 0
-214 -24 0
-215 -25 0
-211 -16 0
-212 -17 0
-213 -18 0
-214 -19 0
-215 -20 0
-211 -11 0
-212 -12 0
-213 -13 0
-214 -14 0
-215 -15 0
-206 -196 0
-207 -197 0
-208 -198 0
-209 -199 0
-210 -200 0
-206 -176 0
-207 -177 0
-208 -178 0
-209 -179 0
-210 -180 0
-206 -171 0
-207 -172 0
-208 -173 0
-209 -174 0
-210 -175 0
-206 -156 0
-207 -157 0
-208 -158 0
-209 -159 0
-210 -160 0
-206 -146 0
-207 -147 0
-208 -148 0
-209 -149 0
-210 -150 0
-206 -141 0
-207 -142 0
-208 -143 0
-209 -144 0
-210 -145 0
-206 -131 0
-207 -132 0
-208 -133 0
-209 -134 0
-210 -135 0
-206 -126 0
-207 -127 0
-208 -128 0
-209 -129 0
-210 -130 0
-206 -121 0
-207 -122 0
-208 -123 0
-209 -124 0
-210 -125 0
-206 -116 0
-207 -117 0
-208 -118 0
-209 -119 0
-210 -120 0
-206 -111 0
-207 -112 0
-208 -113 0
-209 -114 0
-210 -115 0
-206 -96 0
-207 -97 0
-208 -98 0
-209 -99 0
-210 -100 0
-206 -91 0
-207 -92 0
-208 -93 0
-209 -94 0
-210 -95 0
-206 -86 0
-207 -87 0
-208 -88 0
-209 -89 0
-210 -90 0
-206 -51 0
-207 -52 0
-208 -53 0
-209 -54 0
-210 -55 0
-206 -46 0
-207 -47 0
-208 -48 0
-209 -49 0
-210 -50 0
-206 -1 0
-207 -2 0
-208 -3 0
-209 -4 0
-210 -5 0
-201 -191 0
-202 -192 0
-203 -193 0
-204 -194 0
-205 -195 0
-201 -186 0
-202 -187 0
-203 -188 0
-204 -189 0
-205 -190 0
-201 -161 0
-202 -162 0
-203 -163 0
-204 -164 0
-205 -165 0
-201 -156 0
-202 -157 0
-203 -158 0
-204 -159 0
-205 -160 0
-201 -151 0
-202 -152 0
-203 -153 0
-204 -154 0
-205 -155 0
-201 -131 0
-202 -132 0
-203 -133 0
-204 -134 0
-205 -135 0
-201 -121 0
-202 -122 0
-203 -123 0
-204 -124 0
-205 -125 0
-201 -116 0
-202 -117 0
-203 -118 0
-204 -119 0
-205 -120 0
-201 -86 0
-202 -87 0
-203 -88 0
-204 -89 0
-205 -90 0
-201 -81 0
-202 -82 0
-203 -83 0
-204 -84 0
-205 -85 0
-201 -66 0
-202 -67 0
-203 -68 0
-204 -69 0
-205 -70 0
-201 -61 0
-202 -62 0
-203 -63 0
-204 -64 0
-205 -65 0
-201 -56 0
-202 -57 0
-203 -58 0
-204 -59 0
-205 -60 0
-201 -41 0
-202 -42 0
-203 -43 0
-204 -44 0
-205 -45 0
-201 -26 0
-202 -27 0
-203 -28 0
-204 -29 0
-205 -30 0
-201 -11 0
-202 -12 0
-203 -13 0
-204 -14 0
-205 -15 0
-196 -181 0
-197 -182 0
-198 -183 0
-199 -184 0
-200 -185 0
-196 -171 0
-197 -172 0
-198 -173 0
-199 -174 0
-200 -175 0
-196 -166 0
-197 -167 0
-198 -168 0
-199 -169 0
-200 -170 0
-196 -146 0
-197 -147 0
-198 -148 0
-199 -149 0
-200 -150 0
-196 -136 0
-197 -137 0
-198 -138 0
-199 -139 0
-200 -140 0
-196 -126 0
-197 -127 0
-198 -128 0
-199 -129 0
-200 -130 0
-196 -111 0
-197 -112 0
-198 -113 0
-199 -114 0
-200 -115 0
-196 -96 0
-197 -97 0
-198 -98 0
-199 -99 0
-200 -100 0
-196 -91 0
-197 -92 0
-198 -93 0
-199 -94 0
-200 -95 0
-196 -71 0
-197 -72 0
-198 -73 0
-199 -74 0
-200 -75 0
-196 -61 0
-197 -62 0
-198 -63 0
-199 -64 0
-200 -65 0
-196 -46 0
-197 -47 0
-198 -48 0
-199 -49 0
-200 -50 0
-196 -36 0
-197 -37 0
-198 -38 0
-199 -39 0
-200 -40 0
-196 -31 0
-197 -32 0
-198 -33 0
-199 -34 0
-200 -35 0
-196 -21 0
-197 -22 0
-198 -23 0
-199 -24 0
-200 -25 0
-196 -16 0
-197 -17 0
-198 -18 0
-199 -19 0
-200 -20 0
-196 -1 0
-197 -2 0
-198 -3 0
-199 -4 0
-200 -5 0
-191 -186 0
-192 -187 0
-193 -188 0
-194 -189 0
-195 -190 0
-191 -181 0
-192 -182 0
-193 -183 0
-194 -184 0
-195 -185 0
-191 -161 0
-192 -162 0
-193 -163 0
-194 -164 0
-195 -165 0
-191 -156 0
-192 -157 0
-193 -158 0
-194 -159 0
-195 -160 0
-191 -126 0
-192 -127 0
-193 -128 0
-194 -129 0
-195 -130 0
-191 -116 0
-192 -117 0
-193 -118 0
-194 -119 0
-195 -120 0
-191 -106 0
-192 -107 0
-193 -108 0
-194 -109 0
-195 -110 0
-191 -101 0
-192 -102 0
-193 -103 0
-194 -104 0
-195 -105 0
-191 -86 0
-192 -87 0
-193 -88 0
-194 -89 0
-195 -90 0
-191 -81 0
-192 -82 0
-193 -83 0
-194 -84 0
-195 -85 0
-191 -76 0
-192 -77 0
-193 -78 0
-194 -79 0
-195 -80 0
-191 -66 0
-192 -67 0
-193 -68 0
-194 -69 0
-195 -70 0
-191 -56 0
-192 -57 0
-193 -58 0
-194 -59 0
-195 -60 0
-191 -41 0
-192 -42 0
-193 -43 0
-194 -44 0
-195 -45 0
-191 -26 0
-192 -27 0
-193 -28 0
-194 -29 0
-195 -30 0
-191 -21 0
-192 -22 0
-193 -23 0
-194 -24 0
-195 -25 0
-191 -11 0
-192 -12 0
-193 -13 0
-194 -14 0
-195 -15 0
-186 -166 0
-187 -167 0
-188 -168 0
-189 -169 0
-190 -170 0
-186 -161 0
-187 -162 0
-188 -163 0
-189 -164 0
-190 -165 0
-186 -156 0
-187 -157 0
-188 -158 0
-189 -159 0
-190 -160 0
-186 -151 0
-187 -152 0
-188 -153 0
-189 -154 0
-190 -155 0
-186 -146 0
-187 -147 0
-188 -148 0
-189 -149 0
-190 -150 0
-186 -131 0
-187 -132 0
-188 -133 0
-189 -134 0
-190 -135 0
-186 -126 0
-187 -127 0
-188 -128 0
-189 -129 0
-190 -130 0
-186 -121 0
-187 -122 0
-188 -123 0
-189 -124 0
-190 -125 0
-186 -96 0
-187 -97 0
-188 -98 0
-189 -99 0
-190 -100 0
-186 -86 0
-187 -87 0
-188 -88 0
-189 -89 0
-190 -90 0
-186 -81 0
-187 -82 0
-188 -83 0
-189 -84 0
-190 -85 0
-186 -76 0
-187 -77 0
-188 -78 0
-189 -79 0
-190 -80 0
-186 -61 0
-187 -62 0
-188 -63 0
-189 -64 0
-190 -65 0
-186 -56 0
-187 -57 0
-188 -58 0
-189 -59 0
-190 -60 0
-186 -41 0
-187 -42 0
-188 -43 0
-189 -44 0
-190 -45 0
-186 -26 0
-187 -27 0
-188 -28 0
-189 -29 0
-190 -30 0
-186 -21 0
-187 -22 0
-188 -23 0
-189 -24 0
-190 -25 0
-186 -16 0
-187 -17 0
-188 -18 0
-189 -19 0
-190 -20 0
-186 -11 0
-187 -12 0
-188 -13 0
-189 -14 0
-190 -15 0
-181 -171 0
-182 -172 0
-183 -173 0
-184 -174 0
-185 -175 0
-181 -166 0
-182 -167 0
-183 -168 0
-184 -169 0
-185 -170 0
-181 -151 0
-182 -152 0
-183 -153 0
-184 -154 0
-185 -155 0
-181 -146 0
-182 -147 0
-183 -148 0
-184 -149 0
-185 -150 0
-181 -141 0
-182 -142 0
-183 -143 0
-184 -144 0
-185 -145 0
-181 -131 0
-182 -132 0
-183 -133 0
-184 -134 0
-185 -135 0
-181 -96 0
-182 -97 0
-183 -98 0
-184 -99 0
-185 -100 0
-181 -66 0
-182 -67 0
-183 -68 0
-184 -69 0
-185 -70 0
-181 -36 0
-182 -37 0
-183 -38 0
-184 -39 0
-185 -40 0
-181 -31 0
-182 -32 0
-183 -33 0
-184 -34 0
-185 -35 0
-181 -26 0
-182 -27 0
-183 -28 0
-184 -29 0
-185 -30 0
-181 -11 0
-182 -12 0
-183 -13 0
-184 -14 0
-185 -15 0
-176 -166 0
-177 -167 0
-178 -168 0
-179 -169 0
-180 -170 0
-176 -156 0
-177 -157 0
-178 -158 0
-179 -159 0
-180 -160 0
-176 -151 0
-177 -152 0
-178 -153 0
-179 -154 0
-180 -155 0
-176 -131 0
-177 -132 0
-178 -133 0
-179 -134 0
-180 -135 0
-176 -126 0
-177 -127 0
-178 -128 0
-179 -129 0
-180 -130 0
-176 -116 0
-177 -117 0
-178 -118 0
-179 -119 0
-180 -120 0
-176 -111 0
-177 -112 0
-178 -113 0
-179 -114 0
-180 -115 0
-176 -101 0
-177 -102 0
-178 -103 0
-179 -104 0
-180 -105 0
-176 -96 0
-177 -97 0
-178 -98 0
-179 -99 0
-180 -100 0
-176 -91 0
-177 -92 0
-178 -93 0
-179 -94 0
-180 -95 0
-176 -86 0
-177 -87 0
-178 -88 0
-179 -89 0
-180 -90 0
-176 -81 0
-177 -82 0
-178 -83 0
-179 -84 0
-180 -85 0
-176 -76 0
-177 -77 0
-178 -78 0
-179 -79 0
-180 -80 0
-176 -66 0
-177 -67 0
-178 -68 0
-179 -69 0
-180 -70 0
-176 -56 0
-177 -57 0
-178 -58 0
-179 -59 0
-180 -60 0
-176 -51 0
-177 -52 0
-178 -53 0
-179 -54 0
-180 -55 0
-176 -46 0
-177 -47 0
-178 -48 0
-179 -49 0
-180 -50 0
-176 -41 0
-177 -42 0
-178 -43 0
-179 -44 0
-180 -45 0
-176 -36 0
-177 -37 0
-178 -38 0
-179 -39 0
-180 -40 0
-176 -31 0
-177 -32 0
-178 -33 0
-179 -34 0
-180 -35 0
-176 -1 0
-177 -2 0
-178 -3 0
-179 -4 0
-180 -5 0
-171 -151 0
-172 -152 0
-173 -153 0
-174 -154 0
-175 -155 0
-171 -146 0
-172 -147 0
-173 -148 0
-174 -149 0
-175 -150 0
-171 -141 0
-172 -142 0
-173 -143 0
-174 -144 0
-175 -145 0
-171 -136 0
-172 -137 0
-173 -138 0
-174 -139 0
-175 -140 0
-171 -121 0
-172 -122 0
-173 -123 0
-174 -124 0
-175 -125 0
-171 -111 0
-172 -112 0
-173 -113 0
-174 -114 0
-175 -115 0
-171 -101 0
-172 -102 0
-173 -103 0
-174 -104 0
-175 -105 0
-171 -61 0
-172 -62 0
-173 -63 0
-174 -64 0
-175 -65 0
-171 -51 0
-172 -52 0
-173 -53 0
-174 -54 0
-175 -55 0
-171 -46 0
-172 -47 0
-173 -48 0
-174 -49 0
-175 -50 0
-171 -31 0
-172 -32 0
-173 -33 0
-174 -34 0
-175 -35 0
-171 -26 0
-172 -27 0
-173 -28 0
-174 -29 0
-175 -30 0
-171 -11 0
-172 -12 0
-173 -13 0
-174 -14 0
-175 -15 0
-171 -6 0
-172 -7 0
-173 -8 0
-174 -9 0
-175 -10 0
-166 -151 0
-167 -152 0
-168 -153 0
-169 -154 0
-170 -155 0
-166 -146 0
-167 -147 0
-168 -148 0
-169 -149 0
-170 -150 0
-166 -141 0
-167 -142 0
-168 -143 0
-169 -144 0
-170 -145 0
-166 -131 0
-167 -132 0
-168 -133 0
-169 -134 0
-170 -135 0
-166 -121 0
-167 -122 0
-168 -123 0
-169 -124 0
-170 -125 0
-166 -86 0
-167 -87 0
-168 -88 0
-169 -89 0
-170 -90 0
-166 -81 0
-167 -82 0
-168 -83 0
-169 -84 0
-170 -85 0
-166 -61 0
-167 -62 0
-168 -63 0
-169 -64 0
-170 -65 0
-166 -51 0
-167 -52 0
-168 -53 0
-169 -54 0
-170 -55 0
-166 -46 0
-167 -47 0
-168 -48 0
-169 -49 0
-170 -50 0
-166 -41 0
-167 -42 0
-168 -43 0
-169 -44 0
-170 -45 0
-166 -31 0
-167 -32 0
-168 -33 0
-169 -34 0
-170 -35 0
-161 -156 0
-162 -157 0
-163 -158 0
-164 -159 0
-165 -160 0
-161 -136 0
-162 -137 0
-163 -138 0
-164 -139 0
-165 -140 0
-161 -131 0
-162 -132 0
-163 -133 0
-164 -134 0
-165 -135 0
-161 -126 0
-162 -127 0
-163 -128 0
-164 -129 0
-165 -130 0
-161 -116 0
-162 -117 0
-163 -118 0
-164 -119 0
-165 -120 0
-161 -106 0
-162 -107 0
-163 -108 0
-164 -109 0
-165 -110 0
-161 -101 0
-162 -102 0
-163 -103 0
-164 -104 0
-165 -105 0
-161 -81 0
-162 -82 0
-163 -83 0
-164 -84 0
-165 -85 0
-161 -76 0
-162 -77 0
-163 -78 0
-164 -79 0
-165 -80 0
-161 -71 0
-162 -72 0
-163 -73 0
-164 -74 0
-165 -75 0
-161 -66 0
-162 -67 0
-163 -68 0
-164 -69 0
-165 -70 0
-161 -56 0
-162 -57 0
-163 -58 0
-164 -59 0
-165 -60 0
-161 -41 0
-162 -42 0
-163 -43 0
-164 -44 0
-165 -45 0
-161 -26 0
-162 -27 0
-163 -28 0
-164 -29 0
-165 -30 0
-156 -136 0
-157 -137 0
-158 -138 0
-159 -139 0
-160 -140 0
-156 -131 0
-157 -132 0
-158 -133 0
-159 -134 0
-160 -135 0
-156 -126 0
-157 -127 0
-158 -128 0
-159 -129 0
-160 -130 0
-156 -121 0
-157 -122 0
-158 -123 0
-159 -124 0
-160 -125 0
-156 -106 0
-157 -107 0
-158 -108 0
-159 -109 0
-160 -110 0
-156 -96 0
-157 -97 0
-158 -98 0
-159 -99 0
-160 -100 0
-156 -91 0
-157 -92 0
-158 -93 0
-159 -94 0
-160 -95 0
-156 -86 0
-157 -87 0
-158 -88 0
-159 -89 0
-160 -90 0
-156 -81 0
-157 -82 0
-158 -83 0
-159 -84 0
-160 -85 0
-156 -76 0
-157 -77 0
-158 -78 0
-159 -79 0
-160 -80 0
-156 -71 0
-157 -72 0
-158 -73 0
-159 -74 0
-160 -75 0
-156 -61 0
-157 -62 0
-158 -63 0
-159 -64 0
-160 -65 0
-156 -51 0
-157 -52 0
-158 -53 0
-159 -54 0
-160 -55 0
-156 -46 0
-157 -47 0
-158 -48 0
-159 -49 0
-160 -50 0
-156 -16 0
-157 -17 0
-158 -18 0
-159 -19 0
-160 -20 0
-156 -1 0
-157 -2 0
-158 -3 0
-159 -4 0
-160 -5 0
-151 -146 0
-152 -147 0
-153 -148 0
-154 -149 0
-155 -150 0
-151 -96 0
-152 -97 0
-153 -98 0
-154 -99 0
-155 -100 0
-151 -91 0
-152 -92 0
-153 -93 0
-154 -94 0
-155 -95 0
-151 -86 0
-152 -87 0
-153 -88 0
-154 -89 0
-155 -90 0
-151 -61 0
-152 -62 0
-153 -63 0
-154 -64 0
-155 -65 0
-151 -46 0
-152 -47 0
-153 -48 0
-154 -49 0
-155 -50 0
-151 -41 0
-152 -42 0
-153 -43 0
-154 -44 0
-155 -45 0
-151 -36 0
-152 -37 0
-153 -38 0
-154 -39 0
-155 -40 0
-151 -31 0
-152 -32 0
-153 -33 0
-154 -34 0
-155 -35 0
-151 -21 0
-152 -22 0
-153 -23 0
-154 -24 0
-155 -25 0
-151 -16 0
-152 -17 0
-153 -18 0
-154 -19 0
-155 -20 0
-146 -141 0
-147 -142 0
-148 -143 0
-149 -144 0
-150 -145 0
-146 -131 0
-147 -132 0
-148 -133 0
-149 -134 0
-150 -135 0
-146 -121 0
-147 -122 0
-148 -123 0
-149 -124 0
-150 -125 0
-146 -96 0
-147 -97 0
-148 -98 0
-149 -99 0
-150 -100 0
-146 -91 0
-147 -92 0
-148 -93 0
-149 -94 0
-150 -95 0
-146 -81 0
-147 -82 0
-148 -83 0
-149 -84 0
-150 -85 0
-146 -61 0
-147 -62 0
-148 -63 0
-149 -64 0
-150 -65 0
-146 -51 0
-147 -52 0
-148 -53 0
-149 -54 0
-150 -55 0
-146 -46 0
-147 -47 0
-148 -48 0
-149 -49 0
-150 -50 0
-146 -41 0
-147 -42 0
-148 -43 0
-149 -44 0
-150 -45 0
-146 -36 0
-147 -37 0
-148 -38 0
-149 -39 0
-150 -40 0
-146 -31 0
-147 -32 0
-148 -33 0
-149 -34 0
-150 -35 0
-146 -21 0
-147 -22 0
-148 -23 0
-149 -24 0
-150 -25 0
-146 -6 0
-147 -7 0
-148 -8 0
-149 -9 0
-150 -10 0
-141 -111 0
-142 -112 0
-143 -113 0
-144 -114 0
-145 -115 0
-141 -101 0
-142 -102 0
-143 -103 0
-144 -104 0
-145 -105 0
-141 -96 0
-142 -97 0
-143 -98 0
-144 -99 0
-145 -100 0
-141 -91 0
-142 -92 0
-143 -93 0
-144 -94 0
-145 -95 0
-141 -61 0
-142 -62 0
-143 -63 0
-144 -64 0
-145 -65 0
-141 -46 0
-142 -47 0
-143 -48 0
-144 -49 0
-145 -50 0
-141 -36 0
-142 -37 0
-143 -38 0
-144 -39 0
-145 -40 0
-141 -31 0
-142 -32 0
-143 -33 0
-144 -34 0
-145 -35 0
-141 -6 0
-142 -7 0
-143 -8 0
-144 -9 0
-145 -10 0
-141 -1 0
-142 -2 0
-143 -3 0
-144 -4 0
-145 -5 0
-136 -126 0
-137 -127 0
-138 -128 0
-139 -129 0
-140 -130 0
-136 -121 0
-137 -122 0
-138 -123 0
-139 -124 0
-140 -125 0
-136 -111 0
-137 -112 0
-138 -113 0
-139 -114 0
-140 -115 0
-136 -101 0
-137 -102 0
-138 -103 0
-139 -104 0
-140 -105 0
-136 -91 0
-137 -92 0
-138 -93 0
-139 -94 0
-140 -95 0
-136 -86 0
-137 -87 0
-138 -88 0
-139 -89 0
-140 -90 0
-136 -76 0
-137 -77 0
-138 -78 0
-139 -79 0
-140 -80 0
-136 -61 0
-137 -62 0
-138 -63 0
-139 -64 0
-140 -65 0
-136 -56 0
-137 -57 0
-138 -58 0
-139 -59 0
-140 -60 0
-136 -51 0
-137 -52 0
-138 -53 0
-139 -54 0
-140 -55 0
-136 -46 0
-137 -47 0
-138 -48 0
-139 -49 0
-140 -50 0
-136 -26 0
-137 -27 0
-138 -28 0
-139 -29 0
-140 -30 0
-136 -21 0
-137 -22 0
-138 -23 0
-139 -24 0
-140 -25 0
-136 -16 0
-137 -17 0
-138 -18 0
-139 -19 0
-140 -20 0
-136 -6 0
-137 -7 0
-138 -8 0
-139 -9 0
-140 -10 0
-136 -1 0
-137 -2 0
-138 -3 0
-139 -4 0
-140 -5 0
-131 -126 0
-132 -127 0
-133 -128 0
-134 -129 0
-135 -130 0
-131 -116 0
-132 -117 0
-133 -118 0
-134 -119 0
-135 -120 0
-131 -101 0
-132 -102 0
-133 -103 0
-134 -104 0
-135 -105 0
-131 -96 0
-132 -97 0
-133 -98 0
-134 -99 0
-135 -100 0
-131 -91 0
-132 -92 0
-133 -93 0
-134 -94 0
-135 -95 0
-131 -86 0
-132 -87 0
-133 -88 0
-134 -89 0
-135 -90 0
-131 -76 0
-132 -77 0
-133 -78 0
-134 -79 0
-135 -80 0
-131 -66 0
-132 -67 0
-133 -68 0
-134 -69 0
-135 -70 0
-131 -56 0
-132 -57 0
-133 -58 0
-134 -59 0
-135 -60 0
-131 -41 0
-132 -42 0
-133 -43 0
-134 -44 0
-135 -45 0
-131 -36 0
-132 -37 0
-133 -38 0
-134 -39 0
-135 -40 0
-131 -31 0
-132 -32 0
-133 -33 0
-134 -34 0
-135 -35 0
-131 -1 0
-132 -2 0
-133 -3 0
-134 -4 0
-135 -5 0
-126 -121 0
-127 -122 0
-128 -123 0
-129 -124 0
-130 -125 0
-126 -116 0
-127 -117 0
-128 -118 0
-129 -119 0
-130 -120 0
-126 -111 0
-127 -112 0
-128 -113 0
-129 -114 0
-130 -115 0
-126 -106 0
-127 -107 0
-128 -108 0
-129 -109 0
-130 -110 0
-126 -91 0
-127 -92 0
-128 -93 0
-129 -94 0
-130 -95 0
-126 -86 0
-127 -87 0
-128 -88 0
-129 -89 0
-130 -90 0
-126 -81 0
-127 -82 0
-128 -83 0
-129 -84 0
-130 -85 0
-126 -71 0
-127 -72 0
-128 -73 0
-129 -74 0
-130 -75 0
-126 -61 0
-127 -62 0
-128 -63 0
-129 -64 0
-130 -65 0
-126 -56 0
-127 -57 0
-128 -58 0
-129 -59 0
-130 -60 0
-126 -51 0
-127 -52 0
-128 -53 0
-129 -54 0
-130 -55 0
-126 -46 0
-127 -47 0
-128 -48 0
-129 -49 0
-130 -50 0
-126 -41 0
-127 -42 0
-128 -43 0
-129 -44 0
-130 -45 0
-126 -6 0
-127 -7 0
-128 -8 0
-129 -9 0
-130 -10 0
-126 -1 0
-127 -2 0
-128 -3 0
-129 -4 0
-130 -5 0
-121 -106 0
-122 -107 0
-123 -108 0
-124 -109 0
-125 -110 0
-121 -96 0
-122 -97 0
-123 -98 0
-124 -99 0
-125 -100 0
-121 -91 0
-122 -92 0
-123 -93 0
-124 -94 0
-125 -95 0
-121 -71 0
-122 -72 0
-123 -73 0
-124 -74 0
-125 -75 0
-121 -61 0
-122 -62 0
-123 -63 0
-124 -64 0
-125 -65 0
-121 -46 0
-122 -47 0
-123 -48 0
-124 -49 0
-125 -50 0
-121 -41 0
-122 -42 0
-123 -43 0
-124 -44 0
-125 -45 0
-121 -36 0
-122 -37 0
-123 -38 0
-124 -39 0
-125 -40 0
-121 -31 0
-122 -32 0
-123 -33 0
-124 -34 0
-125 -35 0
-121 -21 0
-122 -22 0
-123 -23 0
-124 -24 0
-125 -25 0
-121 -16 0
-122 -17 0
-123 -18 0
-124 -19 0
-125 -20 0
-121 -1 0
-122 -2 0
-123 -3 0
-124 -4 0
-125 -5 0
-116 -111 0
-117 -112 0
-118 -113 0
-119 -114 0
-120 -115 0
-116 -106 0
-117 -107 0
-118 -108 0
-119 -109 0
-120 -110 0
-116 -101 0
-117 -102 0
-118 -103 0
-119 -104 0
-120 -105 0
-116 -96 0
-117 -97 0
-118 -98 0
-119 -99 0
-120 -100 0
-116 -76 0
-117 -77 0
-118 -78 0
-119 -79 0
-120 -80 0
-116 -66 0
-117 -67 0
-118 -68 0
-119 -69 0
-120 -70 0
-116 -36 0
-117 -37 0
-118 -38 0
-119 -39 0
-120 -40 0
-116 -31 0
-117 -32 0
-118 -33 0
-119 -34 0
-120 -35 0
-116 -11 0
-117 -12 0
-118 -13 0
-119 -14 0
-120 -15 0
-111 -106 0
-112 -107 0
-113 -108 0
-114 -109 0
-115 -110 0
-111 -101 0
-112 -102 0
-113 -103 0
-114 -104 0
-115 -105 0
-111 -71 0
-112 -72 0
-113 -73 0
-114 -74 0
-115 -75 0
-111 -66 0
-112 -67 0
-113 -68 0
-114 -69 0
-115 -70 0
-111 -56 0
-112 -57 0
-113 -58 0
-114 -59 0
-115 -60 0
-111 -51 0
-112 -52 0
-113 -53 0
-114 -54 0
-115 -55 0
-111 -46 0
-112 -47 0
-113 -48 0
-114 -49 0
-115 -50 0
-111 -6 0
-112 -7 0
-113 -8 0
-114 -9 0
-115 -10 0
-111 -1 0
-112 -2 0
-113 -3 0
-114 -4 0
-115 -5 0
-106 -101 0
-107 -102 0
-108 -103 0
-109 -104 0
-110 -105 0
-106 -91 0
-107 -92 0
-108 -93 0
-109 -94 0
-110 -95 0
-106 -86 0
-107 -87 0
-108 -88 0
-109 -89 0
-110 -90 0
-106 -81 0
-107 -82 0
-108 -83 0
-109 -84 0
-110 -85 0
-106 -76 0
-107 -77 0
-108 -78 0
-109 -79 0
-110 -80 0
-106 -61 0
-107 -62 0
-108 -63 0
-109 -64 0
-110 -65 0
-106 -56 0
-107 -57 0
-108 -58 0
-109 -59 0
-110 -60 0
-106 -51 0
-107 -52 0
-108 -53 0
-109 -54 0
-110 -55 0
-106 -41 0
-107 -42 0
-108 -43 0
-109 -44 0
-110 -45 0
-106 -21 0
-107 -22 0
-108 -23 0
-109 -24 0
-110 -25 0
-106 -16 0
-107 -17 0
-108 -18 0
-109 -19 0
-110 -20 0
-106 -6 0
-107 -7 0
-108 -8 0
-109 -9 0
-110 -10 0
-106 -1 0
-107 -2 0
-108 -3 0
-109 -4 0
-110 -5 0
-101 -56 0
-102 -57 0
-103 -58 0
-104 -59 0
-105 -60 0
-101 -46 0
-102 -47 0
-103 -48 0
-104 -49 0
-105 -50 0
-101 -6 0
-102 -7 0
-103 -8 0
-104 -9 0
-105 -10 0
-101 -1 0
-102 -2 0
-103 -3 0
-104 -4 0
-105 -5 0
-96 -86 0
-97 -87 0
-98 -88 0
-99 -89 0
-100 -90 0
-96 -81 0
-97 -82 0
-98 -83 0
-99 -84 0
-100 -85 0
-96 -66 0
-97 -67 0
-98 -68 0
-99 -69 0
-100 -70 0
-96 -61 0
-97 -62 0
-98 -63 0
-99 -64 0
-100 -65 0
-96 -41 0
-97 -42 0
-98 -43 0
-99 -44 0
-100 -45 0
-96 -31 0
-97 -32 0
-98 -33 0
-99 -34 0
-100 -35 0
-96 -1 0
-97 -2 0
-98 -3 0
-99 -4 0
-100 -5 0
-91 -86 0
-92 -87 0
-93 -88 0
-94 -89 0
-95 -90 0
-91 -76 0
-92 -77 0
-93 -78 0
-94 -79 0
-95 -80 0
-91 -71 0
-92 -72 0
-93 -73 0
-94 -74 0
-95 -75 0
-91 -61 0
-92 -62 0
-93 -63 0
-94 -64 0
-95 -65 0
-91 -56 0
-92 -57 0
-93 -58 0
-94 -59 0
-95 -60 0
-91 -51 0
-92 -52 0
-93 -53 0
-94 -54 0
-95 -55 0
-91 -21 0
-92 -22 0
-93 -23 0
-94 -24 0
-95 -25 0
-91 -16 0
-92 -17 0
-93 -18 0
-94 -19 0
-95 -20 0
-86 -81 0
-87 -82 0
-88 -83 0
-89 -84 0
-90 -85 0
-86 -76 0
-87 -77 0
-88 -78 0
-89 -79 0
-90 -80 0
-86 -71 0
-87 -72 0
-88 -73 0
-89 -74 0
-90 -75 0
-86 -56 0
-87 -57 0
-88 -58 0
-89 -59 0
-90 -60 0
-86 -51 0
-87 -52 0
-88 -53 0
-89 -54 0
-90 -55 0
-86 -46 0
-87 -47 0
-88 -48 0
-89 -49 0
-90 -50 0
-86 -41 0
-87 -42 0
-88 -43 0
-89 -44 0
-90 -45 0
-86 -31 0
-87 -32 0
-88 -33 0
-89 -34 0
-90 -35 0
-86 -1 0
-87 -2 0
-88 -3 0
-89 -4 0
-90 -5 0
-81 -76 0
-82 -77 0
-83 -78 0
-84 -79 0
-85 -80 0
-81 -56 0
-82 -57 0
-83 -58 0
-84 -59 0
-85 -60 0
-81 -41 0
-82 -42 0
-83 -43 0
-84 -44 0
-85 -45 0
-81 -36 0
-82 -37 0
-83 -38 0
-84 -39 0
-85 -40 0
-81 -31 0
-82 -32 0
-83 -33 0
-84 -34 0
-85 -35 0
-81 -26 0
-82 -27 0
-83 -28 0
-84 -29 0
-85 -30 0
-81 -21 0
-82 -22 0
-83 -23 0
-84 -24 0
-85 -25 0
-81 -1 0
-82 -2 0
-83 -3 0
-84 -4 0
-85 -5 0
-76 -71 0
-77 -72 0
-78 -73 0
-79 -74 0
-80 -75 0
-76 -66 0
-77 -67 0
-78 -68 0
-79 -69 0
-80 -70 0
-76 -56 0
-77 -57 0
-78 -58 0
-79 -59 0
-80 -60 0
-76 -41 0
-77 -42 0
-78 -43 0
-79 -44 0
-80 -45 0
-76 -11 0
-77 -12 0
-78 -13 0
-79 -14 0
-80 -15 0
-76 -1 0
-77 -2 0
-78 -3 0
-79 -4 0
-80 -5 0
-71 -61 0
-72 -62 0
-73 -63 0
-74 -64 0
-75 -65 0
-71 -56 0
-72 -57 0
-73 -58 0
-74 -59 0
-75 -60 0
-71 -51 0
-72 -52 0
-73 -53 0
-74 -54 0
-75 -55 0
-71 -46 0
-72 -47 0
-73 -48 0
-74 -49 0
-75 -50 0
-71 -26 0
-72 -27 0
-73 -28 0
-74 -29 0
-75 -30 0
-71 -21 0
-72 -22 0
-73 -23 0
-74 -24 0
-75 -25 0
-71 -16 0
-72 -17 0
-73 -18 0
-74 -19 0
-75 -20 0
-71 -6 0
-72 -7 0
-73 -8 0
-74 -9 0
-75 -10 0
-71 -1 0
-72 -2 0
-73 -3 0
-74 -4 0
-75 -5 0
-66 -56 0
-67 -57 0
-68 -58 0
-69 -59 0
-70 -60 0
-66 -36 0
-67 -37 0
-68 -38 0
-69 -39 0
-70 -40 0
-66 -31 0
-67 -32 0
-68 -33 0
-69 -34 0
-70 -35 0
-66 -26 0
-67 -27 0
-68 -28 0
-69 -29 0
-70 -30 0
-66 -11 0
-67 -12 0
-68 -13 0
-69 -14 0
-70 -15 0
-61 -51 0
-62 -52 0
-63 -53 0
-64 -54 0
-65 -55 0
-61 -46 0
-62 -47 0
-63 -48 0
-64 -49 0
-65 -50 0
-61 -41 0
-62 -42 0
-63 -43 0
-64 -44 0
-65 -45 0
-61 -36 0
-62 -37 0
-63 -38 0
-64 -39 0
-65 -40 0
-61 -26 0
-62 -27 0
-63 -28 0
-64 -29 0
-65 -30 0
-61 -21 0
-62 -22 0
-63 -23 0
-64 -24 0
-65 -25 0
-61 -16 0
-62 -17 0
-63 -18 0
-64 -19 0
-65 -20 0
-61 -1 0
-62 -2 0
-63 -3 0
-64 -4 0
-65 -5 0
-56 -11 0
-57 -12 0
-58 -13 0
-59 -14 0
-60 -15 0
-56 -1 0
-57 -2 0
-58 -3 0
-59 -4 0
-60 -5 0
-51 -46 0
-52 -47 0
-53 -48 0
-54 -49 0
-55 -50 0
-51 -21 0
-52 -22 0
-53 -23 0
-54 -24 0
-55 -25 0
-51 -16 0
-52 -17 0
-53 -18 0
-54 -19 0
-55 -20 0
-51 -1 0
-52 -2 0
-53 -3 0
-54 -4 0
-55 -5 0
-46 -36 0
-47 -37 0
-48 -38 0
-49 -39 0
-50 -40 0
-46 -21 0
-47 -22 0
-48 -23 0
-49 -24 0
-50 -25 0
-46 -16 0
-47 -17 0
-48 -18 0
-49 -19 0
-50 -20 0
-46 -6 0
-47 -7 0
-48 -8 0
-49 -9 0
-50 -10 0
-41 -36 0
-42 -37 0
-43 -38 0
-44 -39 0
-45 -40 0
-41 -31 0
-42 -32 0
-43 -33 0
-44 -34 0
-45 -35 0
-41 -26 0
-42 -27 0
-43 -28 0
-44 -29 0
-45 -30 0
-41 -21 0
-42 -22 0
-43 -23 0
-44 -24 0
-45 -25 0
-41 -11 0
-42 -12 0
-43 -13 0
-44 -14 0
-45 -15 0
-41 -1 0
-42 -2 0
-43 -3 0
-44 -4 0
-45 -5 0
-36 -31 0
-37 -32 0
-38 -33 0
-39 -34 0
-40 -35 0
-36 -26 0
-37 -27 0
-38 -28 0
-39 -29 0
-40 -30 0
-36 -11 0
-37 -12 0
-38 -13 0
-39 -14 0
-40 -15 0
-36 -6 0
-37 -7 0
-38 -8 0
-39 -9 0
-40 -10 0
-31 -11 0
-32 -12 0
-33 -13 0
-34 -14 0
-35 -15 0
-26 -21 0
-27 -22 0
-28 -23 0
-29 -24 0
-30 -25 0
-26 -16 0
-27 -17 0
-28 -18 0
-29 -19 0
-30 -20 0
-26 -11 0
-27 -12 0
-28 -13 0
-29 -14 0
-30 -15 0
-26 -6 0
-27 -7 0
-28 -8 0
-29 -9 0
-30 -10 0
-21 -11 0
-22 -12 0
-23 -13 0
-24 -14 0
-25 -15 0
-21 -6 0
-22 -7 0
-23 -8 0
-24 -9 0
-25 -10 0
-16 -11 0
-17 -12 0
-18 -13 0
-19 -14 0
-20 -15 0
-16 -6 0
-17 -7 0
-18 -8 0
-19 -9 0
-20 -10 0
-11 -6 0
-12 -7 0
-13 -8 0
-14 -9 0
-15 -10 0
246 247 248 249 250 0
-246 -247 0
-246 -248 0
-246 -249 0
-246 -250 0
-247 -248 0
-247 -249 0
-247 -250 0
-248 -249 0
-248 -250 0
-249 -250 0
241 242 243 244 245 0
-241 -242 0
-241 -243 0
-241 -244 0
-241 -245 0
-242 -243 0
-242 -244 0
-242 -245 0
-243 -244 0
-243 -245 0
-244 -245 0
236 237 238 239 240 0
-236 -237 0
-236 -238 0
-236 -239 0
-236 -240 0
-237 -238 0
-237 -239 0
-237 -240 0
-238 -239 0
-238 -240 0
-239 -240 0
231 232 233 234 235 0
-231 -232 0
-231 -233 0
-231 -234 0
-231 -235 0
-232 -233 0
-232 -234 0
-232 -235 0
-233 -234 0
-233 -235 0
-234 -235 0
226 227 228 229 230 0
-226 -227 0
-226 -228 0
-226 -229 0
-226 -230 0
-227 -228 0
-227 -229 0
-227 -230 0
-228 -229 0
-228 -230 0
-229 -230 0
221 222 223 224 225 0
-221 -222 0
-221 -223 0
-221 -224 0
-221 -225 0
-222 -223 0
-222 -224 0
-222 -225 0
-223 -224 0
-223 -225 0
-224 -225 0
216 217 218 219 220 0
-216 -217 0
-216 -218 0
-216 -219 0
-216 -220 0
-217 -218 0
-217 -219 0
-217 -220 0
-218 -219 0
-218 -220 0
-219 -220 0
211 212 213 214 215 0
-211 -212 0
-211 -213 0
-211 -214 0
-211 -215 0
-212 -213 0
-212 -214 0
-212 -215 0
-213 -214 0
-213 -215 0
-214 -215 0
206 207 208 209 210 0
-206 -207 0
-206 -208 0
-206 -209 0
-206 -210 0
-207 -208 0
-207 -209 0
-207 -210 0
-208 -209 0
-208 -210 0
-209 -210 0
201 202 203 204 205 0
-201 -202 0
-201 -203 0
-201 -204 0
-201 -205 0
-202 -203 0
-202 -204 0
-202 -205 0
-203 -204 0
-203 -205 0
-204 -205 0
196 197 198 199 200 0
-196 -197 0
-196 -198 0
-196 -199 0
-196 -200 0
-197 -198 0
-197 -199 0
-197 -200 0
-198 -199 0
-198 -200 0
-199 -200 0
191 192 193 194 195 0
-191 -192 0
-191 -193 0
-191 -194 0
-191 -195 0
-192 -193 0
-192 -194 0
-192 -195 0
-193 -194 0
-193 -195 0
-194 -195 0
186 187 188 189 190 0
-186 -187 0
-186 -188 0
-186 -189 0
-186 -190 0
-187 -188 0
-187 -189 0
-187 -190 0
-188 -189 0
-188 -190 0
-189 -190 0
181 182 183 184 185 0
-181 -182 0
-181 -183 0
-181 -184 0
-181 -185 0
-182 -183 0
-182 -184 0
-182 -185 0
-183 -184 0
-183 -185 0
-184 -185 0
176 177 178 179 180 0
-176 -177 0
-176 -178 0
-176 -179 0
-176 -180 0
-177 -178 0
-177 -179 0
-177 -180 0
-178 -179 0
-178 -180 0
-179 -180 0
171 172 173 174 175 0
-171 -172 0
-171 -173 0
-171 -174 0
-171 -175 0
-172 -173 0
-172 -174 0
-172 -175 0
-173 -174 0
-173 -175 0
-174 -175 0
166 167 168 169 170 0
-166 -167 0
-166 -168 0
-166 -169 0
-166 -170 0
-167 -168 0
-167 -169 0
-167 -170 0
-168 -169 0
-168 -170 0
-169 -170 0
161 162 163 164 165 0
-161 -162 0
-161 -163 0
-161 -164 0
-161 -165 0
-162 -163 0
-162 -164 0
-162 -165 0
-163 -164 0
-163 -165 0
-164 -165 0
156 157 158 159 160 0
-156 -157 0
-156 -158 0
-156 -159 0
-156 -160 0
-157 -158 0
-157 -159 0
-157 -160 0
-158 -159 0
-158 -160 0
-159 -160 0
151 152 153 154 155 0
-151 -152 0
-151 -153 0
-151 -154 0
-151 -155 0
-152 -153 0
-152 -154 0
-152 -155 0
-153 -154 0
-153 -155 0
-154 -155 0
146 147 148 149 150 0
-146 -147 0
-146 -148 0
-146 -149 0
-146 -150 0
-147 -148 0
-147 -149 0
-147 -150 0
-148 -149 0
-148 -150 0
-149 -150 0
141 142 143 144 145 0
-141 -142 0
-141 -143 0
-141 -144 0
-141 -145 0
-142 -143 0
-142 -144 0
-142 -145 0
-143 -144 0
-143 -145 0
-144 -145 0
136 137 138 139 140 0
-136 -137 0
-136 -138 0
-136 -139 0
-136 -140 0
-137 -138 0
-137 -139 0
-137 -140 0
-138 -139 0
-138 -140 0
-139 -140 0
131 132 133 134 135 0
-131 -132 0
-131 -133 0
-131 -134 0
-131 -135 0
-132 -133 0
-132 -134 0
-132 -135 0
-133 -134 0
-133 -135 0
-134 -135 0
126 127 128 129 130 0
-126 -127 0
-126 -128 0
-126 -129 0
-126 -130 0
-127 -128 0
-127 -129 0
-127 -130 0
-128 -129 0
-128 -130 0
-129 -130 0
121 122 123 124 125 0
-121 -122 0
-121 -123 0
-121 -124 0
-121 -125 0
-122 -123 0
-122 -124 0
-122 -125 0
-123 -124 0
-123 -125 0
-124 -125 0
116 117 118 119 120 0
-116 -117 0
-116 -118 0
-116 -119 0
-116 -120 0
-117 -118 0
-117 -119 0
-117 -120 0
-118 -119 0
-118 -120 0
-119 -120 0
111 112 113 114 115 0
-111 -112 0
-111 -113 0
-111 -114 0
-111 -115 0
-112 -113 0
-112 -114 0
-112 -115 0
-113 -114 0
-113 -115 0
-114 -115 0
106 107 108 109 110 0
-106 -107 0
-106 -108 0
-106 -109 0
-106 -110 0
-107 -108 0
-107 -109 0
-107 -110 0
-108 -109 0
-108 -110 0
-109 -110 0
101 102 103 104 105 0
-101 -102 0
-101 -103 0
-101 -104 0
-101 -105 0
-102 -103 0
-102 -104 0
-102 -105 0
-103 -104 0
-103 -105 0
-104 -105 0
96 97 98 99 100 0
-96 -97 0
-96 -98 0
-96 -99 0
-96 -100 0
-97 -98 0
-97 -99 0
-97 -100 0
-98 -99 0
-98 -100 0
-99 -100 0
91 92 93 94 95 0
-91 -92 0
-91 -93 0
-91 -94 0
-91 -95 0
-92 -93 0
-92 -94 0
-92 -95 0
-93 -94 0
-93 -95 0
-94 -95 0
86 87 88 89 90 0
-86 -87 0
-86 -88 0
-86 -89 0
-86 -90 0
-87 -88 0
-87 -89 0
-87 -90 0
-88 -89 0
-88 -90 0
-89 -90 0
81 82 83 84 85 0
-81 -82 0
-81 -83 0
-81 -84 0
-81 -85 0
-82 -83 0
-82 -84 0
-82 -85 0
-83 -84 0
-83 -85 0
-84 -85 0
76 77 78 79 80 0
-76 -77 0
-76 -78 0
-76 -79 0
-76 -80 0
-77 -78 0
-77 -79 0
-77 -80 0
-78 -79 0
-78 -80 0
-79 -80 0
71 72 73 74 75 0
-71 -72 0
-71 -73 0
-71 -74 0
-71 -75 0
-72 -73 0
-72 -74 0
-72 -75 0
-73 -74 0
-73 -75 0
-74 -75 0
66 67 68 69 70 0
-66 -67 0
-66 -68 0
-66 -69 0
-66 -70 0
-67 -68 0
-67 -69 0
-67 -70 0
-68 -69 0
-68 -70 0
-69 -70 0
61 62 63 64 65 0
-61 -62 0
-61 -63 0
-61 -64 0
-61 -65 0
-62 -63 0
-62 -64 0
-62 -65 0
-63 -64 0
-63 -65 0
-64 -65 0
56 57 58 59 60 0
-56 -57 0
-56 -58 0
-56 -59 0
-56 -60 0
-57 -58 0
-57 -59 0
-57 -60 0
-58 -59 0
-58 -60 0
-59 -60 0
51 52 53 54 55 0
-51 -52 0
-51 -53 0
-51 -54 0
-51 -55 0
-52 -53 0
-52 -54 0
-52 -55 0
-53 -54 0
-53 -55 0
-54 -55 0
46 47 48 49 50 0
-46 -47 0
-46 -48 0
-46 -49 0
-46 -50 0
-47 -48 0
-47 -49 0
-47 -50 0
-48 -49 0
-48 -50 0
-49 -50 0
41 42 43 44 45 0
-41 -42 0
-41 -43 0
-41 -44 0
-41 -45 0
-42 -43 0
-42 -44 0
-42 -45 0
-43 -44 0
-43 -45 0
-44 -45 0
36 37 38 39 40 0
-36 -37 0
-36 -38 0
-36 -39 0
-36 -40 0
-37 -38 0
-37 -39 0
-37 -40 0
-38 -39 0
-38 -40 0
-39 -40 0
31 32 33 34 35 0
-31 -32 0
-31 -33 0
-31 -34 0
-31 -35 0
-32 -33 0
-32 -34 0
-32 -35 0
-33 -34 0
-33 -35 0
-34 -35 0
26 27 28 29 30 0
-26 -27 0
-26 -28 0
-26 -29 0
-26 -30 0
-27 -28 0
-27 -29 0
-27 -30 0
-28 -29 0
-28 -30 0
-29 -30 0
21 22 23 24 25 0
-21 -22 0
-21 -23 0
-21 -24 0
-21 -25 0
-22 -23 0
-22 -24 0
-22 -25 0
-23 -24 0
-23 -25 0
-24 -25 0
16 17 18 19 20 0
-16 -17 0
-16 -18 0
-16 -19 0
-16 -20 0
-17 -18 0
-17 -19 0
-17 -20 0
-18 -19 0
-18 -20 0
-19 -20 0
11 12 13 14 15 0
-11 -12 0
-11 -13 0
-11 -14 0
-11 -15 0
-12 -13 0
-12 -14 0
-12 -15 0
-13 -14 0
-13 -15 0
-14 -15 0
6 7 8 9 10 0
-6 -7 0
-6 -8 0
-6 -9 0
-6 -10 0
-7 -8 0
-7 -9 0
-7 -10 0
-8 -9 0
-8 -10 0
-9 -10 0
1 2 3 4 5 0
-1 -2 0
-1 -3 0
-1 -4 0
-1 -5 0
-2 -3 0
-2 -4 0
-2 -5 0
-3 -4 0
-3 -5 0
-4 -5 0
